PROBLEM NAME: eil51_n14
KNAPSACK DATA TYPE: uncorrelated, similar weights
DIMENSION: 14
NUMBER OF ITEMS: 13
CAPACITY OF KNAPSACK: 709462
MIN SPEED: 0.1
MAX SPEED: 1
RENTING RATIO: 4.11
EDGE_WEIGHT_TYPE: CEIL_2D
NODE_COORD_SECTION	(INDEX, X, Y):
1	40	30
2	21	47
3	52	33
4	42	41
5	5	25
6	36	16
7	17	33
8	42	57
9	58	27
10	63	69
11	32	22
12	45	35
13	32	39
14	25	32
ITEMS SECTION	(INDEX, PROFIT, WEIGHT, ASSIGNED NODE NUMBER):
1	954	100041	6
2	938	100052	11
3	936	100010	14
4	696	100024	7
5	675	100044	5
6	586	100072	2
7	539	100027	13
8	486	100051	4
9	354	100087	8
10	354	100012	10
11	337	100081	9
12	280	100089	3
13	17	100092	12
